NAME : n60w120.001.536.tour
COMMENT : Length = 536
COMMENT : Found by LKH [Keld Helsgaun] Tue May  2 05:47:22 2017
TYPE : TOUR
DIMENSION : 61
TOUR_SECTION
1
7
13
39
43
10
49
18
20
52
35
57
16
23
59
33
8
60
14
26
53
51
45
31
5
6
19
48
32
47
17
28
24
11
30
12
40
3
29
22
44
42
46
9
27
36
58
2
4
34
55
38
21
56
37
25
50
41
61
54
15
-1
EOF
